min: c;

c = 4.55019045720233 * u3_t10_h0 + 3.60551693533273 * u3_t10_h1 + 3.04092795249486 * u3_t4_h2 + 3.04092795249486 * u3_t10_h2 + 3.65342290669847 * u3_t4_h3 + 3.65342290669847 * u3_t10_h3 + 3.34423400070498 * u3_t4_h4 + 3.34423400070498 * u3_t10_h4 + 3.1630243970635 * u3_t4_h5 + 3.1630243970635 * u3_t10_h5 + 3.83425525963864 * u3_t4_h6 + 3.83425525963864 * u3_t10_h6 + 4.11381296415122 * u3_t4_h7 + 4.11381296415122 * u3_t9_h7 + 4.11381296415122 * u3_t10_h7 + 5.61066458689976 * u3_t4_h8 + 5.61066458689976 * u3_t9_h8 + 4.77474062053618 * u3_t4_h9 + 4.77474062053618 * u3_t9_h9 + 5.6526758435808 * u3_t4_h10 + 5.6526758435808 * u3_t6_h10 + 5.6526758435808 * u3_t9_h10 + 3.7617791679847 * u3_t3_h11 + 3.7617791679847 * u3_t4_h11 + 3.7617791679847 * u3_t6_h11 + 3.7617791679847 * u3_t9_h11 + 5.82696521322066 * u3_t3_h12 + 5.82696521322066 * u3_t4_h12 + 5.82696521322066 * u3_t6_h12 + 5.82696521322066 * u3_t9_h12 + 4.92349984258871 * u3_t3_h13 + 4.92349984258871 * u3_t4_h13 + 4.92349984258871 * u3_t5_h13 + 4.92349984258871 * u3_t6_h13 + 4.92349984258871 * u3_t9_h13 + 5.42736701362619 * u3_t3_h14 + 5.42736701362619 * u3_t4_h14 + 5.42736701362619 * u3_t5_h14 + 5.42736701362619 * u3_t6_h14 + 5.42736701362619 * u3_t9_h14 + 6.54904951238883 * u3_t2_h15 + 6.54904951238883 * u3_t3_h15 + 6.54904951238883 * u3_t4_h15 + 6.54904951238883 * u3_t5_h15 + 6.54904951238883 * u3_t6_h15 + 6.54904951238883 * u3_t9_h15 + 6.13122237037533 * u3_t2_h16 + 6.13122237037533 * u3_t4_h16 + 6.13122237037533 * u3_t5_h16 + 6.13122237037533 * u3_t6_h16 + 6.13122237037533 * u3_t9_h16 + 5.90834968696809 * u3_t2_h17 + 5.90834968696809 * u3_t4_h17 + 5.90834968696809 * u3_t6_h17 + 5.90834968696809 * u3_t9_h17 + 6.52981939588579 * u3_t2_h18 + 6.52981939588579 * u3_t6_h18 + 6.52981939588579 * u3_t9_h18 + 5.09663362786039 * u3_t2_h19 + 5.09663362786039 * u3_t9_h19 + 5.29499820849339 * u3_t1_h20 + 5.29499820849339 * u3_t2_h20 + 5.29499820849339 * u3_t8_h20 + 5.29499820849339 * u3_t9_h20 + 5.19955997379004 * u3_t1_h21 + 5.19955997379004 * u3_t2_h21 + 5.19955997379004 * u3_t7_h21 + 5.19955997379004 * u3_t8_h21 + 5.19955997379004 * u3_t9_h21 + 5.3173790727871 * u3_t1_h22 + 5.3173790727871 * u3_t7_h22 + 5.3173790727871 * u3_t8_h22 + 5.74339900671985 * u3_t1_h23 + 5.74339900671985 * u3_t7_h23 + 5.74339900671985 * u3_t8_h23;
0 <= u3_t1_h20 <= 1;
0 <= u3_t1_h21 <= 1;
0 <= u3_t1_h22 <= 1;
0 <= u3_t1_h23 <= 1;
u3_t1_h20 + u3_t1_h21 + u3_t1_h22 + u3_t1_h23 = 2;
0 <= u3_t2_h15 <= 1;
0 <= u3_t2_h16 <= 1;
0 <= u3_t2_h17 <= 1;
0 <= u3_t2_h18 <= 1;
0 <= u3_t2_h19 <= 1;
0 <= u3_t2_h20 <= 1;
0 <= u3_t2_h21 <= 1;
u3_t2_h15 + u3_t2_h16 + u3_t2_h17 + u3_t2_h18 + u3_t2_h19 + u3_t2_h20 + u3_t2_h21 = 3;
0 <= u3_t3_h11 <= 1;
0 <= u3_t3_h12 <= 1;
0 <= u3_t3_h13 <= 1;
0 <= u3_t3_h14 <= 1;
0 <= u3_t3_h15 <= 1;
u3_t3_h11 + u3_t3_h12 + u3_t3_h13 + u3_t3_h14 + u3_t3_h15 = 2;
0 <= u3_t4_h2 <= 1;
0 <= u3_t4_h3 <= 1;
0 <= u3_t4_h4 <= 1;
0 <= u3_t4_h5 <= 1;
0 <= u3_t4_h6 <= 1;
0 <= u3_t4_h7 <= 1;
0 <= u3_t4_h8 <= 1;
0 <= u3_t4_h9 <= 1;
0 <= u3_t4_h10 <= 1;
0 <= u3_t4_h11 <= 1;
0 <= u3_t4_h12 <= 1;
0 <= u3_t4_h13 <= 1;
0 <= u3_t4_h14 <= 1;
0 <= u3_t4_h15 <= 1;
0 <= u3_t4_h16 <= 1;
0 <= u3_t4_h17 <= 1;
u3_t4_h2 + u3_t4_h3 + u3_t4_h4 + u3_t4_h5 + u3_t4_h6 + u3_t4_h7 + u3_t4_h8 + u3_t4_h9 + u3_t4_h10 + u3_t4_h11 + u3_t4_h12 + u3_t4_h13 + u3_t4_h14 + u3_t4_h15 + u3_t4_h16 + u3_t4_h17 = 3;
0 <= u3_t5_h13 <= 1;
0 <= u3_t5_h14 <= 1;
0 <= u3_t5_h15 <= 1;
0 <= u3_t5_h16 <= 1;
u3_t5_h13 + u3_t5_h14 + u3_t5_h15 + u3_t5_h16 = 2;
0 <= u3_t6_h10 <= 1;
0 <= u3_t6_h11 <= 1;
0 <= u3_t6_h12 <= 1;
0 <= u3_t6_h13 <= 1;
0 <= u3_t6_h14 <= 1;
0 <= u3_t6_h15 <= 1;
0 <= u3_t6_h16 <= 1;
0 <= u3_t6_h17 <= 1;
0 <= u3_t6_h18 <= 1;
u3_t6_h10 + u3_t6_h11 + u3_t6_h12 + u3_t6_h13 + u3_t6_h14 + u3_t6_h15 + u3_t6_h16 + u3_t6_h17 + u3_t6_h18 = 2;
0 <= u3_t7_h21 <= 1;
0 <= u3_t7_h22 <= 1;
0 <= u3_t7_h23 <= 1;
u3_t7_h21 + u3_t7_h22 + u3_t7_h23 = 2;
0 <= u3_t8_h20 <= 1;
0 <= u3_t8_h21 <= 1;
0 <= u3_t8_h22 <= 1;
0 <= u3_t8_h23 <= 1;
u3_t8_h20 + u3_t8_h21 + u3_t8_h22 + u3_t8_h23 = 1;
0 <= u3_t9_h7 <= 1;
0 <= u3_t9_h8 <= 1;
0 <= u3_t9_h9 <= 1;
0 <= u3_t9_h10 <= 1;
0 <= u3_t9_h11 <= 1;
0 <= u3_t9_h12 <= 1;
0 <= u3_t9_h13 <= 1;
0 <= u3_t9_h14 <= 1;
0 <= u3_t9_h15 <= 1;
0 <= u3_t9_h16 <= 1;
0 <= u3_t9_h17 <= 1;
0 <= u3_t9_h18 <= 1;
0 <= u3_t9_h19 <= 1;
0 <= u3_t9_h20 <= 1;
0 <= u3_t9_h21 <= 1;
u3_t9_h7 + u3_t9_h8 + u3_t9_h9 + u3_t9_h10 + u3_t9_h11 + u3_t9_h12 + u3_t9_h13 + u3_t9_h14 + u3_t9_h15 + u3_t9_h16 + u3_t9_h17 + u3_t9_h18 + u3_t9_h19 + u3_t9_h20 + u3_t9_h21 = 2;
0 <= u3_t10_h0 <= 1;
0 <= u3_t10_h1 <= 1;
0 <= u3_t10_h2 <= 1;
0 <= u3_t10_h3 <= 1;
0 <= u3_t10_h4 <= 1;
0 <= u3_t10_h5 <= 1;
0 <= u3_t10_h6 <= 1;
0 <= u3_t10_h7 <= 1;
u3_t10_h0 + u3_t10_h1 + u3_t10_h2 + u3_t10_h3 + u3_t10_h4 + u3_t10_h5 + u3_t10_h6 + u3_t10_h7 = 3;
